75400 100 1100 83 67 13 30 93 72 15 90 37 94 22 99 17 78 67 34 47 88 65 20 48 69 34 52 90 10 48 56 89 17 92 66 40 11 31 60 26 15 69 57 75 96 90 53 96 72 63 90 73 12 54 52 86 10 92 55 26 10 41 75 68 93 28 45 11 72 30 97 78 61 46 31 78 53 29 62 23 80 79 31 23 39 36 78 68 64 57 48 78 68 30 62 48 82 20 63 99 45 82 90 173 146 54 84 188 153 59 184 95 190 70 199 62 164 145 90 111 181 143 67 114 148 91 121 184 50 113 127 182 63 188 143 100 52 85 135 77 59 148 129 158 193 183 121 194 154 139 183 156 53 123 120 177 51 187 126 76 51 103 159 147 189 81 108 51 154 85 195 164 135 110 85 163 122 82 137 72 167 165 86 71 99 94 163 148 140 129 114 164 148 84 136 113 171 67 138 199 108 171 183
